100 152964
41 63 57 64 39 95 62 53 100 61 21 18 98 81 78 76 33 29 32 77 46 69 25 2 82 96 43 88 49 13 86 91 70 97 12 72 87 15 4 40 45 84 79 92 50 28 56 48 51 54 34 11 36 35 14 19 42 94 23 85 55 80 90 20 89 83 68 27 60 9 67 71 52 10 75 93 99 47 58 3 30 8 7 5 1 66 31 59 37 26 38 73 24 17 44 22 6 16 65 74 
